NAME: ACTUAL_TOURS/amz1410
TYPE: TOUR
COMMENT: RouteID_95fa8987-306d-4218-b4c8-3938111a8ec1
DIMENSION: 190
TOUR_SECTION
10
121
104
145
60
15
53
3
157
111
127
8
136
68
154
183
156
160
5
126
133
137
50
122
41
98
75
73
29
16
82
96
130
142
155
140
149
23
163
91
93
81
17
176
141
24
165
64
43
37
107
92
185
4
119
59
105
28
63
110
113
45
94
42
188
11
13
124
135
139
1
143
120
131
175
61
80
179
54
22
35
123
174
27
67
146
177
26
58
129
170
102
97
125
77
76
20
118
172
9
89
6
84
147
30
65
33
181
153
70
108
158
167
44
161
12
169
85
71
152
134
55
88
21
90
7
32
189
138
47
52
66
48
34
184
57
128
36
62
132
72
162
151
51
31
74
40
182
78
112
144
46
103
87
171
49
109
166
187
83
18
101
150
39
95
38
190
148
79
19
115
186
99
86
69
159
173
100
178
114
116
106
56
180
25
164
14
2
117
168
-1
EOF
